s td 171 10 188
b 1 2 7 62
b 2 29 55 100
b 3 22 70 156
b 4 31 78 80
b 5 24 83 90
b 6 100 129
b 7 104 123 139
b 8 35 49 114
b 9 123 174
b 10 14 46 142
b 11 72 155 188
b 12 2 62 127
b 13 62 86 127
b 14 22 86 156
b 15 31 32 80
b 16 35 49 74
b 17 14 46 187
b 18 14 20 185 187
b 19 23 49 74
b 20 65 72 188
b 21 67 93 125 160
b 22 86 96 127
b 23 34 109 113 150
b 24 86 156 167
b 25 24 109 168
b 26 24 34 109 113
b 27 24 109 113
b 28 116 169 174
b 29 4 77 131 147
b 30 6 12 36 143
b 31 16 74 119 152
b 32 23 74 84 152
b 33 23 74 119 152
b 34 23 58 119 152
b 35 23 58 119 135
b 36 23 102 119 135
b 37 19 101 107 143
b 38 101 107 132 143
b 39 23 26 102 135
b 40 26 71 102 135
b 41 26 71 102 113
b 42 24 26 71 113
b 43 24 26 113
b 44 24 26 90
b 45 26 90 118 129
b 46 26 60 129
b 47 60 129 177
b 48 30 75 163 173
b 49 1 3 25 47 59 66 81 130 137 157
b 50 3 5 130 137 157
b 51 5 111 130 137
b 52 1 25 47 59 66 81 110 130 137 157
b 53 25 47 59 66 81 110 130 137 149 157
b 54 25 47 59 81 110 125 130 137 149 157
b 55 17 25 47 59 81 110 125 137 149 157
b 56 17 25 47 59 81 110 125 149 157 162
b 57 17 25 47 59 68 81 110 125 149 162
b 58 25 40 47 59 68 81 110 149 162
b 59 25 40 47 59 68 81 110 149 171
b 60 25 40 47 59 68 81 110 171 179
b 61 13 25 40 47 59 68 81 171 179
b 62 11 13 25 40 59 68 171 179
b 63 11 13 25 40 59 68 181 187
b 64 11 13 38 40 68 181 187
b 65 11 38 40 68 122 187
b 66 8 11 38 40 122
b 67 38 45 68 122 187
b 68 21 38 45 122
b 69 45 65 68 106 187
b 70 28 45 65 68 106
b 71 27 28 65 68
b 72 45 65 106 115 187
b 73 65 106 115 144
b 74 45 106 115 166
b 75 65 115 187 188
b 76 40 68 122 140
b 77 11 13 38 134
b 78 25 52 59 181 187
b 79 41 52 54 59 94 121 181 187
b 80 41 52 54 59 94 108 121
b 81 52 54 59 94 108 169
b 82 52 59 94 108 120 169
b 83 52 59 108 120 136 169
b 84 9 52 108 120 136
b 85 52 59 116 120 136 169
b 86 52 59 116 136 147
b 87 52 59 60 136 147
b 88 39 52 60 136 147
b 89 39 52 60 136 184
b 90 52 56 136 184
b 91 39 60 77 136 147
b 92 39 60 77 131 147
b 93 39 60 61 77 131
b 94 60 61 131 177
b 95 39 77 136 147 178
b 96 42 116 136 147
b 97 94 108 120 128 169
b 98 54 92 94 169
b 99 41 52 108 121 154
b 100 52 108 154 165
b 101 10 41 54 94 121 181 187
b 102 10 41 54 94 101 181 187
b 103 10 54 94 101 117 181 187
b 104 48 54 94 101 117 181 187
b 105 48 54 101 117 180 181 187
b 106 15 48 101 117 180 181 187
b 107 12 15 48 101 180 181 187
b 108 12 15 53 101 180 181 187
b 109 12 20 53 180 187
b 110 20 53 185 187
b 111 12 15 53 101 143 181
b 112 12 36 53 143
b 113 53 101 132 143 181
b 114 53 91 181 187
b 115 12 48 89 180
b 116 48 54 161 180
b 117 48 54 94 117 164
b 118 41 52 99 181
b 119 13 25 47 63 81 179
b 120 25 47 63 112
b 121 47 63 81 153 179
b 122 81 105 110 171 179
b 123 40 110 138 149 171
b 124 40 149 162 183
b 125 17 68 85 125 162
b 126 17 68 80 85 125
b 127 32 68 80 85
b 128 17 80 85 176
b 129 17 76 149 157 162
b 130 76 88 149 157
b 131 125 130 137 160
b 132 66 82 110 149 157
b 133 1 33 66 81 110
b 134 1 3 25 47 59 66 81 130 157 182
b 135 1 3 25 47 59 66 103 130 157 182
b 136 1 3 25 59 66 69 103 130 157 182
b 137 1 3 59 66 69 103 130 157 167 182
b 138 1 3 66 69 73 103 130 157 167 182
b 139 1 3 66 73 103 126 130 157 167 182
b 140 1 3 66 73 98 126 130 157 167
b 141 1 3 66 73 98 130 145 157 167
b 142 3 66 73 98 130 145 151 157 167
b 143 3 73 96 98 130 145 151 167
b 144 3 50 73 96 98 130 145 151
b 145 3 50 73 96 97 98 130 145
b 146 3 18 50 73 96 97 98 130
b 147 3 18 50 96 97 130 163
b 148 3 18 50 75 97 130 163
b 149 18 43 50 75 97
b 150 3 50 75 130 163 173
b 151 3 50 51 75 173
b 152 3 130 141 173
b 153 18 75 163 175
b 154 18 73 96 97 98 158
b 155 73 95 96 98 158
b 156 73 95 98 172
b 157 73 87 96 167
b 158 66 124 145 151
b 159 1 37 66 98 145
b 160 1 64 126 182
b 161 73 103 126 146 182
b 162 73 126 146 186
b 163 44 69 73 103 167
b 164 44 69 103 159
b 165 59 69 148 167
b 166 25 59 69 79
b 167 25 47 103 133 182
b 168 1 47 81 170 182
b 169 57 61 131 177
b 170 67 125 130 160
b 171 86 87 96 167
1 12
2 6
3 14
4 15
5 44
6 47
7 9
8 16
9 28
10 17
11 20
12 13
13 22
14 24
15 127
16 19
17 18
18 110
19 33
20 75
21 170
22 171
23 26
24 171
25 26
26 42
26 27
28 85
29 92
30 112
31 33
32 33
33 34
34 35
35 36
36 39
37 38
38 113
39 40
40 41
41 42
42 44
42 43
44 45
45 46
46 47
47 94
48 150
49 50
49 52
49 134
50 51
52 53
52 133
53 54
53 132
54 55
54 131
55 56
56 57
56 129
57 58
57 125
58 59
58 124
59 60
59 123
60 61
60 122
61 62
61 119
62 63
63 64
63 78
64 65
64 77
65 66
65 67
65 76
67 68
67 69
69 70
69 72
70 71
72 73
72 74
72 75
78 79
79 80
79 101
79 118
80 81
80 99
81 82
81 98
82 83
82 97
83 84
83 85
85 86
86 87
86 96
87 88
88 89
88 91
89 90
91 92
91 95
92 93
93 94
94 169
99 100
101 102
102 103
103 104
104 105
104 117
105 106
105 116
106 107
107 108
107 115
108 109
108 111
108 114
109 110
111 112
111 113
119 120
119 121
125 126
126 127
126 128
129 130
131 170
134 135
134 168
135 136
135 167
136 137
136 166
137 138
137 165
138 139
138 163
139 140
139 160
139 161
140 141
141 142
141 159
142 143
142 158
143 144
143 157
144 145
145 146
146 147
146 154
147 148
148 149
148 150
148 153
150 151
150 152
154 155
155 156
157 171
161 162
163 164
